(set-info :Origin "This instance was generated by: BanditFuzz-- an RL fuzzer for SMT solvers" )
(set-info :Author "Joe Scott, Fed Mora, Vijay Ganesh" )
(set-info :Contact "Joe Scott, joseph.scott@uwaterloo.ca")
; solvers/z3.sh
; 	time => 0.19682884216308594
; 	answer => err
; solvers/bitwuzla.sh
; 	time => 0.23633599281311035
; 	answer => err
; solvers/cvc4.sh
; 	time => 0.2815999984741211
; 	answer => err
(set-logic QF_BV)
(declare-const bool_0 Bool)
(declare-const bool_1 Bool)
(declare-const bool_2 Bool)
(declare-const bool_3 Bool)
(declare-const bool_4 Bool)
(declare-const bv_0 (_ BitVec 8))
(declare-const bv_1 (_ BitVec 8))
(declare-const bv_2 (_ BitVec 8))
(declare-const bv_3 (_ BitVec 8))
(declare-const bv_4 (_ BitVec 8))
(assert (bvuge (bvsub (bvxnor #x000000cb  #x0000004a ) (bvnand bv_0 #x00000086 )) (bvsub (bvnand bv_4 bv_3) (bvadd bv_0 #x000000a2 ))))
(assert (bvugt (bvsrem (bvurem #x000000a2  #x000000e5 ) (bvashr bv_4 #x000000dd )) (bvxnor (bvsdiv #x00000028  bv_4) (bvmul bv_1 #x000000d4 ))))
(assert (bvugt (bvadd (bvadd bv_2 #x000000ee ) (bvand bv_1 bv_3)) (bvsub (bvadd bv_0 #x00000065 ) (bvsrem bv_2 bv_2))))
(assert (not (bvugt (bvashr #x000000f4  bv_0) (bvudiv bv_1 #x000000b1 ))))
(assert (bvsge (bvsrem (bvxnor bv_4 bv_0) (bvshl #x00000099  bv_4)) (bvnor (bvmul #x00000011  #x000000e5 ) (bvsrem bv_1 bv_0))))
(check-sat)
(exit)
